************************************************************************
file with basedata            : md343_.bas
initial value random generator: 1193488060
************************************************************************
projects                      :  1
jobs (incl. supersource/sink ):  22
horizon                       :  156
RESOURCES
  - renewable                 :  2   R
  - nonrenewable              :  2   N
  - doubly constrained        :  0   D
************************************************************************
PROJECT INFORMATION:
pronr.  #jobs rel.date duedate tardcost  MPM-Time
    1     20      0       23        2       23
************************************************************************
PRECEDENCE RELATIONS:
jobnr.    #modes  #successors   successors
   1        1          3           2   3   4
   2        3          2          10  11
   3        3          3           8  11  21
   4        3          3           5   6   9
   5        3          2          15  17
   6        3          3           7   8  12
   7        3          2          10  11
   8        3          2          18  19
   9        3          2          20  21
  10        3          2          16  21
  11        3          3          14  15  17
  12        3          2          13  17
  13        3          1          14
  14        3          1          16
  15        3          2          16  19
  16        3          1          18
  17        3          2          18  19
  18        3          1          20
  19        3          1          22
  20        3          1          22
  21        3          1          22
  22        1          0        
************************************************************************
REQUESTS/DURATIONS:
jobnr. mode duration  R 1  R 2  N 1  N 2
------------------------------------------------------------------------
  1      1     0       0    0    0    0
  2      1     1      10    7    0    4
         2     6       7    6    0    4
         3    10       7    3    3    0
  3      1     2       5    4    9    0
         2     3       5    4    8    0
         3     9       4    2    7    0
  4      1     2       5    6    7    0
         2     4       4    3    5    0
         3     4       5    2    0    3
  5      1     2       3    6    8    0
         2     4       2    5    0    9
         3     8       2    5    0    8
  6      1     1       3    6    0    9
         2     6       1    1    9    0
         3     6       2    2    0    5
  7      1     3       5    8    3    0
         2     4       4    7    0    2
         3     8       2    7    1    0
  8      1     3       8    7    0    9
         2     4       7    5    0    6
         3     8       6    4    0    4
  9      1     1       6    7    9    0
         2     5       6    7    0    3
         3     8       5    4    0    1
 10      1     4       5    4    7    0
         2     4       5    5    0    5
         3    10       4    1    0    3
 11      1     5       8    9    6    0
         2     9       7    9    6    0
         3    10       4    9    3    0
 12      1     2       8    5    7    0
         2     6       7    3    0    9
         3     9       7    2    6    0
 13      1     5       7    2    0    8
         2     6       5    1    0    7
         3     6       6    1    6    0
 14      1     6       8    8    0    9
         2     7       7    7    5    0
         3    10       5    5    0    5
 15      1     2       4    8    0    4
         2     8       4    3    6    0
         3     9       4    2    0    3
 16      1     1       8   10    0    5
         2     2       5   10    9    0
         3     5       5   10    0    4
 17      1     1       2    9    4    0
         2     7       1    7    0    5
         3     8       1    5    0    2
 18      1     1       6    8    4    0
         2     1       8    8    0    8
         3     3       2    6    0    7
 19      1     6       8    6    8    0
         2     6       8    7    6    0
         3     6      10    8    0    9
 20      1     4       9    5    2    0
         2     8       6    5    0    8
         3    10       4    5    2    0
 21      1     6       8    8    0    7
         2     9       8    5    0    6
         3     9       7    6    7    0
 22      1     0       0    0    0    0
************************************************************************
RESOURCEAVAILABILITIES:
  R 1  R 2  N 1  N 2
   22   27   92   88
************************************************************************
MAXIMAL LAGS:
from  to  type  delay
    1   22   ES      0
    1    2   ES      0
    2   22   ES      0
    1    3   ES      0
    3   22   ES      0
    1    4   ES      0
    4   22   ES      0
    1    5   ES      0
    5   22   ES      0
    1    6   ES      0
    6   22   ES      0
    1    7   ES      0
    7   22   ES      0
    1    8   ES      0
    8   22   ES      0
    1    9   ES      0
    9   22   ES      0
    1   10   ES      0
   10   22   ES      0
    1   11   ES      0
   11   22   ES      0
    1   12   ES      0
   12   22   ES      0
    1   13   ES      0
   13   22   ES      0
    1   14   ES      0
   14   22   ES      0
    1   15   ES      0
   15   22   ES      0
    1   16   ES      0
   16   22   ES      0
    1   17   ES      0
   17   22   ES      0
    1   18   ES      0
   18   22   ES      0
    1   19   ES      0
   19   22   ES      0
    1   20   ES      0
   20   22   ES      0
    1   21   ES      0
   21   22   ES      0
    1   22   ES      0
    2   10   SS     -4
    2   10   SE      7
    2   10   ES     -2
    2   10   EE    -12
    2   11   SS    -12
    2   11   SE     -2
    2   11   ES    -12
    2   11   EE      3
    3    8   SS    -11
    3    8   SE     11
    3    8   ES     -8
    3    8   EE      1
    3   11   SS    -11
    3   11   SE      5
   11    3   SE      0
    3   11   ES      0
    3   11   EE     12
    3   21   SS      7
    3   21   SE     11
    3   21   ES      4
    3   21   EE     -7
    4    5   SS     -7
    4    5   SE     -9
    4    5   ES    -12
    4    5   EE     -1
    4    6   SS     -5
    4    6   SE    -10
    4    6   ES      1
    4    6   EE    -10
    4    9   SS     -9
    4    9   SE      3
    4    9   ES      2
    4    9   EE      1
    5   15   SS      5
    5   15   SE      2
    5   15   ES     -8
    5   15   EE      7
    5   17   SS      8
    5   17   SE    -12
    5   17   ES     -3
    5   17   EE      3
    6    7   SS      3
    6    7   SE     -4
    6    7   ES     -8
    6    7   EE     -2
    6    8   SS      9
    6    8   SE      5
    6    8   ES     -1
    6    8   EE      7
    6   12   SS      9
    6   12   SE     10
    6   12   ES     -9
    6   12   EE      3
    7   10   SS      3
    7   10   SE     11
    7   10   ES      6
    7   10   EE     -6
    7   11   SS     -8
    7   11   SE     -5
    7   11   ES      4
    7   11   EE     -8
    8   18   SS     -8
    8   18   SE     -5
    8   18   ES      9
    8   18   EE    -10
    8   19   SS     11
    8   19   SE     -9
    8   19   ES     10
    8   19   EE      0
    9   20   SS     -3
    9   20   SE      7
    9   20   ES     -9
    9   20   EE     -5
    9   21   SS     -5
    9   21   SE     -4
    9   21   ES     -7
    9   21   EE     11
   10   16   SS      9
   10   16   SE     -3
   10   16   ES     -2
   10   16   EE     10
   10   21   SS      2
   10   21   SE      9
   10   21   ES      6
   10   21   EE      4
   11   14   SS      4
   11   14   SE      6
   11   14   ES     -4
   11   14   EE     12
   11   15   SS     -8
   11   15   SE     -2
   11   15   ES      1
   11   15   EE     -1
   11   17   SS      9
   11   17   SE     -8
   11   17   ES      6
   11   17   EE     11
   12   13   SS    -11
   12   13   SE     11
   12   13   ES      0
   12   13   EE      8
   12   17   SS    -11
   12   17   SE     -6
   12   17   ES     -7
   12   17   EE    -12
   13   14   SS     -8
   13   14   SE      8
   13   14   ES    -11
   13   14   EE     -5
   14   16   SS     -7
   14   16   SE      0
   14   16   ES     -2
   14   16   EE    -12
   15   16   SS      6
   15   16   SE      3
   15   16   ES      3
   15   16   EE     -1
   15   19   SS     -6
   15   19   SE      8
   15   19   ES      6
   15   19   EE      0
   16   18   SS      2
   16   18   SE     -6
   16   18   ES      2
   16   18   EE      7
   17   18   SS     -4
   17   18   SE      5
   17   18   ES      2
   17   18   EE     -9
   17   19   SS     11
   17   19   SE     -4
   17   19   ES      8
   17   19   EE     12
   18   20   SS      4
   18   20   SE     -2
   18   20   ES     -2
   18   20   EE     -7
************************************************************************
